Linux optc-09-06 4.15.0-58-generic #64-Ubuntu SMP Tue Aug 6 11:12:41 UTC 2019 x86_64 x86_64 x86_64 GNU/Linux

top - 22:06:29 up 1 day, 12:07,  0 users,  load average: 0,57, 0,90, 0,96
Tasks: 290 gesamt,   1 laufend, 149 schlafend,   0 gestoppt,   0 Zombie
%CPU(s):  7,5 be,  0,2 sy,  0,0 ni, 92,2 un,  0,0 wa,  0,0 hi,  0,0 si,  0,0 st
KiB Spch : 97514992 gesamt, 95339088 frei,   648568 belegt,  1527336 Puff/Cache
KiB Swap:  8388604 gesamt,  8388604 frei,        0 belegt. 96124688 verfü Spch 

  PID USER      PR  NI    VIRT    RES    SHR S  %CPU %MEM     ZEIT+ BEFEHL
13246 bzfhende  20   0   52664   4248   3508 R   6,2  0,0   0:00.01 top
    1 root      20   0  225648   9400   6704 S   0,0  0,0   0:12.05 systemd
    2 root      20   0       0      0      0 S   0,0  0,0   0:00.11 kthreadd
    3 root      20   0       0      0      0 I   0,0  0,0   0:02.24 kworker/0:0
    4 root       0 -20       0      0      0 I   0,0  0,0   0:00.00 kworker/0:+
    6 root      20   0       0      0      0 I   0,0  0,0   0:00.00 kworker/u3+
    7 root       0 -20       0      0      0 I   0,0  0,0   0:00.00 mm_percpu_+
    8 root      20   0       0      0      0 S   0,0  0,0   0:00.02 ksoftirqd/0

hard time limit: 04:10:00
hard mem limit: 55100

SLURM jobID: 2182620

@01 /nfs/optimi/kombadon/IP/coral/neos-1407044.mps.gz ===========
-----------------------------
Do 22. Aug 22:06:29 CEST 2019
-----------------------------
@03 1566504389
@05 7200
SCIP version 6.0.0 [precision: 8 byte] [memory: block] [mode: optimized] [LP solver: CPLEX 12.8.0.0] [GitHash: 41ab6e0014]
Copyright (C) 2002-2018 Konrad-Zuse-Zentrum fuer Informationstechnik Berlin (ZIB)

External codes: 
  Readline 7.0         GNU library for command line editing (gnu.org/s/readline)
  CPLEX 12.8.0.0       Linear Programming Solver developed by IBM (www.cplex.com)
  CppAD 20180000.0     Algorithmic Differentiation of C++ algorithms developed by B. Bell (www.coin-or.org/CppAD)
  ZLIB 1.2.11          General purpose compression library by J. Gailly and M. Adler (zlib.net)
  GMP 6.1.2            GNU Multiple Precision Arithmetic Library developed by T. Granlund (gmplib.org)
  bliss 0.73p          Computing Graph Automorphism Groups by T. Junttila and P. Kaski (http://www.tcs.hut.fi/Software/bliss/)

user parameter file <scip.set> not found - using default parameters

SCIP> 
SCIP> set load /home/optimi/bzfhende/opti/scip-opti/check/../settings/enable_treeeprofile.set
loaded parameter file </home/optimi/bzfhende/opti/scip-opti/check/../settings/enable_treeprofile.set>
SCIP> set limits time 7200
limits/time = 7200
SCIP> set limits nodes 2100000000
limits/nodes = 2100000000
SCIP> set limits memory 50000
limits/memory = 50000
SCIP> set lp advanced threads 1
lp/threads = 1
SCIP> set timing clocktype 1
timing/clocktype = 1
SCIP> set display freq 10000
display/freq = 10000
SCIP> set memory savefac 1.0
memory/savefac = 1
SCIP> set save /home/optimi/bzfhende/opti/scip-opti/check/treesize.estimation.jouurnal.3/bzfhende.MMMc.156_neos-1407044.scip.M640.enable_treeprofile.set
saved parameter file </home/optimi/bzfhende/opti/scip-opti/check/treesize.estimation.journal.3/bzfhende.MMMc.156_neos-1407044.scip.M640.enable_treeprofile.set>
SCIP> read /nfs/optimi/kombadon/IP/coral/neos-1407044.mps.gz

read problem </nfs/optimi/kombadon/IP/coral/neos-1407044.mps.gz>
============

original problem has 16604 variables (14861 bin, 1743 int, 0 impl, 0 cont) and 6908 constraints
SCIP> display parameters

number of parameters = 2448
non-default parameter settings:
display/freq = 10000
limits/time = 7200
limits/nodes = 2100000000
limits/memory = 50000
lp/threads = 1
memory/savefac = 1
presolving/maxrestarts = 0
estimates/profile/enabled = TRUE
estimates/profile/maxdepthfactor = 10
estimates/profile/freq = 0

SCIP> optimize

Activating tree profile data collection
presolving:
(round 1, fast)       105 del vars, 0 del conss, 0 add conss, 1953 chg bounds, 0 chg sides, 0 chg coeffs, 0 upgd conss, 0 impls, 1889 clqs
(round 2, exhaustive) 105 del vars, 0 del conss, 0 add conss, 1953 chg bounds, 0 chg sides, 0 chg coeffs, 5165 upgd conss, 0 impls, 1889 clqs
   (0.4s) sparsify aborted: 9261/206591 (4.5%) nonzeros canceled - in total 9261 canceled nonzeros, 9261 changed coefficients, 0 added nonzeros
(round 3, exhaustive) 105 del vars, 0 del conss, 0 add conss, 1953 chg bounds, 0 chg sides, 9261 chg coeffs, 5165 upgd conss, 3276 impls, 1889 clqs
   (0.7s) sparsify aborted: 343/197330 (0.2%) nonzeros canceled - in total 9604 canceled nonzeros, 9604 changed coefficients, 0 added nonzeros
   (0.8s) probing: 51/14924 (0.3%) - 0 fixings, 0 aggregations, 0 implications, 0 bound changes
   (0.8s) probing aborted: 50/50 successive totally useless probings
presolving (4 rounds: 4 fast, 3 medium, 3 exhaustive):
 105 deleted vars, 0 deleted constraints, 0 added constraints, 1953 tightened bounds, 0 added holes, 0 changed sides, 9604 changed coefficients
 3276 implications, 1889 cliques
presolved problem has 16562 variables (14924 bin, 1638 int, 0 impl, 0 cont) and 6908 constraints
   3276 constraints of type <varbound>
   1889 constraints of type <setppc>
   1743 constraints of type <linear>
transformed objective value is always integral (scale: 1)
Presolving Time: 0.73

 time | node  | left  |LP iter|LP it/n| mem |mdpt |frac |vars |cons |cols |rows |cuts |confs|strbr|  dualbound   | primalbound  |  gap   
  5.4s|     1 |     0 | 12984 |     - | 214M|   0 |1322 |  16k|6920 |  16k|6908 |   0 |  19 |   0 | 1.800000e+03 |      --      |    Inf 
SCIP nodes: 1 Estimation: -1
 66.8s|     1 |     2 |105768 |     - | 239M|   0 |1322 |  16k|6920 |  16k|6908 |   0 |  19 |  20 | 1.800000e+03 |      --      |    Inf 
   (66.9s) symmetry computation started: requiring (bin +, int -, cont -), (fixed: bin -, int +, cont -)
   (66.9s) no symmetry present
SCIP nodes: 2 Estimation: -1
SCIP nodes: 4 Estimation: -1
SCIP nodes: 8 Estimation: -1
SCIP nodes: 16 Estimation: -1
SCIP nodes: 32 Estimation: -1
SCIP nodes: 64 Estimation: -1
SCIP nodes: 128 Estimation: -1
SCIP nodes: 256 Estimation: -1
SCIP nodes: 512 Estimation: 5480.48
SCIP nodes: 1024 Estimation: 11882.8

SCIP Status        : solving was interrupted [time limit reached]
Solving Time (sec) : 7200.00
Solving Nodes      : 1252
Primal Bound       : +1.00000000000000e+20 (0 solutions)
Dual Bound         : +1.80000000000009e+03
Gap                : infinite

SCIP> display statistics

SCIP Status        : solving was interrupted [time limit reached]
Total Time         :    7200.08
  solving          :    7200.00
  presolving       :       0.73 (included in solving)
  reading          :       0.08
  copying          :       0.14 (4 #copies) (minimal 0.03, maximal 0.04, average 0.04)
Original Problem   :
  Problem name     : _MPS_
  Variables        : 16604 (14861 binary, 1743 integer, 0 implicit integer, 0 continuous)
  Constraints      : 6908 initial, 6908 maximal
  Objective        : minimize, 1638 non-zeros (abs.min = 1, abs.max = 9)
Presolved Problem  :
  Problem name     : t__MPS_
  Variables        : 16562 (14924 binary, 1638 integer, 0 implicit integer, 0 continuous)
  Constraints      : 6908 initial, 6946 maximal
  Objective        : minimize, 1638 non-zeros (abs.min = 1, abs.max = 9)
Presolvers         :   ExecTime  SetupTime  Calls  FixedVars   AggrVars   ChgTypes  ChgBounds   AddHoles    DelCons    AddCons   ChgSides   ChgCoefs
  boundshift       :       0.00       0.00      0          0          0          0          0          0          0          0          0          0
  convertinttobin  :       0.00       0.00      0          0          0          0          0          0          0          0          0          0
  domcol           :       0.04       0.00      2          0          0          0          0          0          0          0          0          0
  dualagg          :       0.00       0.00      0          0          0          0          0          0          0          0          0          0
  dualcomp         :       0.00       0.00      0          0          0          0          0          0          0          0          0          0
  dualinfer        :       0.00       0.00      0          0          0          0          0          0          0          0          0          0
  gateextraction   :       0.00       0.00      0          0          0          0          0          0          0          0          0          0
  implics          :       0.00       0.00      3          0          0          0          0          0          0          0          0          0
  inttobinary      :       0.00       0.00      4          0         63         63          0          0          0          0          0          0
  qpkktref         :       0.00       0.00      0          0          0          0          0          0          0          0          0          0
  redvub           :       0.00       0.00      0          0          0          0          0          0          0          0          0          0
  sparsify         :       0.51       0.00      2          0          0          0          0          0          0          0          0       9604
  stuffing         :       0.00       0.00      0          0          0          0          0          0          0          0          0          0
  symbreak         :       0.00       0.00      0          0          0          0          0          0          0          0          0          0
  symmetry         :       0.00       0.00      0          0          0          0          0          0          0          0          0          0
  trivial          :       0.00       0.00      4         42          0          0          0          0          0          0          0          0
  tworowbnd        :       0.00       0.00      0          0          0          0          0          0          0          0          0          0
  dualfix          :       0.00       0.00      4          0          0          0          0          0          0          0          0          0
  genvbounds       :       0.00       0.00      0          0          0          0          0          0          0          0          0          0
  orbitalfixing    :       0.00       0.00      0          0          0          0          0          0          0          0          0          0
  probing          :       0.03       0.00      1          0          0          0          0          0          0          0          0          0
  pseudoobj        :       0.00       0.00      0          0          0          0          0          0          0          0          0          0
  vbounds          :       0.01       0.00      1          0          0          0          0          0          0          0          0          0
  varbound         :       0.01       0.00      4          0          0          0          0          0          0          0          0          0
  knapsack         :       0.00       0.00      0          0          0          0          0          0          0          0          0          0
  setppc           :       0.00       0.00      6          0          0          0          0          0          0          0          0          0
  linear           :       0.10       0.02      7          0          0          0       1953          0          0          0          0          0
  logicor          :       0.00       0.00      0          0          0          0          0          0          0          0          0          0
  bounddisjunction :       0.00       0.00      0          0          0          0          0          0          0          0          0          0
  benders          :       0.00       0.00      0          0          0          0          0          0          0          0          0          0
  components       :       0.02       0.00      1          0          0          0          0          0          0          0          0          0
  root node        :          -          -      -          0          -          -          0          -          -          -          -          -
Constraints        :     Number  MaxNumber  #Separate #Propagate    #EnfoLP    #EnfoRelax  #EnfoPS    #Check   #ResProp    Cutoffs    DomReds       Cuts    Applied      Conss   Children
  benderslp        :          0          0          0          0       1252          0          0         74          0          0          0          0          0          0          0
  integral         :          0          0          0          0       1252          0          0         74          0          0          0          0          0          0       2504
  varbound         :       3276       3276          1      81789          0          0          0         70          0          0         11          0          0          0          0
  knapsack         :          0+         6          0      59433          0          0          0          0          0          1          0          0          0          0          0
  setppc           :       1889+      1893          1      81788          0          0          0         42        349          1       7074          0          0          0          0
  linear           :       1743+      1746          1      81787          0          0          0          0        720         74       1242          0          0          0          0
  logicor          :          0+        16          1         94          0          0          0          0          0          0          0          0          0          0          0
  bounddisjunction :          0+        10          0          1          0          0          0          0          0          0          0          0          0          0          0
  benders          :          0          0          0          0          0          0          0          0          0          0          0          0          0          0          0
  countsols        :          0          0          0          0          0          0          0          0          0          0          0          0          0          0          0
  components       :          0          0          0          0          0          0          0          0          0          0          0          0          0          0          0
Constraint Timings :  TotalTime  SetupTime   Separate  Propagate     EnfoLP     EnfoPS     EnfoRelax   Check    ResProp    SB-Prop
  benderslp        :       0.00       0.00       0.00       0.00       0.00       0.00       0.00       0.00       0.00       0.00
  integral         :    2229.24       0.00       0.00       0.00    2229.23       0.00       0.00       0.01       0.00       0.00
  varbound         :       0.11       0.00       0.00       0.08       0.00       0.00       0.00       0.03       0.00       0.00
  knapsack         :       0.01       0.00       0.00       0.01       0.00       0.00       0.00       0.00       0.00       0.00
  setppc           :       0.48       0.00       0.00       0.33       0.00       0.00       0.00       0.00       0.00       0.15
  linear           :       1.93       0.02       0.49       1.19       0.00       0.00       0.00       0.00       0.01       0.22
  logicor          :       0.00       0.00       0.00       0.00       0.00       0.00       0.00       0.00       0.00       0.00
  bounddisjunction :       0.00       0.00       0.00       0.00       0.00       0.00       0.00       0.00       0.00       0.00
  benders          :       0.00       0.00       0.00       0.00       0.00       0.00       0.00       0.00       0.00       0.00
  countsols        :       0.00       0.00       0.00       0.00       0.00       0.00       0.00       0.00       0.00       0.00
  components       :       0.05       0.00       0.00       0.05       0.00       0.00       0.00       0.00       0.00       0.00
Propagators        : #Propagate   #ResProp    Cutoffs    DomReds
  dualfix          :          1          0          0          0
  genvbounds       :          0          0          0          0
  nlobbt           :          0          0          0          0
  obbt             :          0          0          0          0
  orbitalfixing    :          1          0          0          0
  probing          :          0          0          0          0
  pseudoobj        :       3696          0          0          0
  redcost          :       2524          0          0          0
  rootredcost      :          1          0          0          0
  vbounds          :      82941          0          0          0
Propagator Timings :  TotalTime  SetupTime   Presolve  Propagate    ResProp    SB-Prop
  dualfix          :       0.00       0.00       0.00       0.00       0.00       0.00
  genvbounds       :       0.04       0.00       0.00       0.03       0.00       0.01
  nlobbt           :       0.00       0.00       0.00       0.00       0.00       0.00
  obbt             :       0.00       0.00       0.00       0.00       0.00       0.00
  orbitalfixing    :       0.08       0.00       0.00       0.08       0.00       0.00
  probing          :       0.03       0.00       0.03       0.00       0.00       0.00
  pseudoobj        :       0.09       0.00       0.00       0.08       0.00       0.01
  redcost          :       0.50       0.00       0.00       0.49       0.00       0.01
  rootredcost      :       0.05       0.00       0.00       0.03       0.00       0.02
  vbounds          :       0.08       0.00       0.01       0.06       0.00       0.01
Conflict Analysis  :       Time      Calls    Success    DomReds  Conflicts   Literals    Reconvs ReconvLits   Dualrays   Nonzeros   LP Iters   (pool size: [10000,10000])
  propagation      :       0.00          2          0          -          0        0.0          0        0.0          -          -          -
  infeasible LP    :       0.01         11         11          -        224      341.1          0        0.0         11      306.1          0
  bound exceed. LP :       0.00          0          0          -          0        0.0          0        0.0          0        0.0          0
  strong branching :       0.00          0          0          -          0        0.0          0        0.0          -          -          0
  pseudo solution  :       0.00          0          0          -          0        0.0          0        0.0          -          -          -
  applied globally :       0.00          -          -          0         37      210.3          -          -         11          -          -
  applied locally  :          -          -          -          0          0        0.0          -          -          0          -          -
Separators         :   ExecTime  SetupTime      Calls    Cutoffs    DomReds       Cuts    Applied      Conss
  cut pool         :       0.00                    85          -          -          1          -          -    (maximal pool size: 1)
  aggregation      :       0.35       0.00         55          0          0          0          0          0
  cgmip            :       0.00       0.00          0          0          0          0          0          0
  clique           :       0.06       0.00          1          0          0          0          0          0
  closecuts        :       0.00       0.00          0          0          0          0          0          0
  cmir             :       0.00       0.00          0          0          0          0          0          0
  convexproj       :       0.00       0.00          0          0          0          0          0          0
  disjunctive      :       0.00       0.00          0          0          0          0          0          0
  eccuts           :       0.00       0.00          0          0          0          0          0          0
  flowcover        :       0.00       0.00          0          0          0          0          0          0
  gauge            :       0.00       0.00          0          0          0          0          0          0
  gomory           :       7.53       0.00         55          0          0          0          0          0
  impliedbounds    :       0.00       0.00         55          0          0          0          0          0
  intobj           :       0.00       0.00          0          0          0          0          0          0
  mcf              :       0.01       0.00          1          0          0          0          0          0
  oddcycle         :       0.00       0.00          0          0          0          0          0          0
  rapidlearning    :       0.00       0.00          0          0          0          0          0          0
  strongcg         :       5.20       0.00         55          0          0          0          0          0
  zerohalf         :      16.52       0.00         55          0          0         23         24          0
Pricers            :   ExecTime  SetupTime      Calls       Vars
  problem variables:       0.00          -          0          0
Branching Rules    :   ExecTime  SetupTime   BranchLP  BranchExt   BranchPS    Cutoffs    DomReds       Cuts      Conss   Children
  allfullstrong    :       0.00       0.00          0          0          0          0          0          0          0          0
  cloud            :       0.00       0.00          0          0          0          0          0          0          0          0
  distribution     :       0.00       0.00          0          0          0          0          0          0          0          0
  fullstrong       :       0.00       0.00          0          0          0          0          0          0          0          0
  inference        :       0.00       0.00          0          0          0          0          0          0          0          0
  leastinf         :       0.00       0.00          0          0          0          0          0          0          0          0
  lookahead        :       0.00       0.00          0          0          0          0          0          0          0          0
  mostinf          :       0.00       0.00          0          0          0          0          0          0          0          0
  multaggr         :       0.00       0.00          0          0          0          0          0          0          0          0
  nodereopt        :       0.00       0.00          0          0          0          0          0          0          0          0
  pscost           :       0.00       0.00          0          0          0          0          0          0          0          0
  random           :       0.00       0.00          0          0          0          0          0          0          0          0
  relpscost        :    2229.23       0.00       1252          0          0          0          0          0          0       2504
Primal Heuristics  :   ExecTime  SetupTime      Calls      Found       Best
  LP solutions     :       0.00          -          -          0          0
  relax solutions  :       0.00          -          -          0          0
  pseudo solutions :       0.00          -          -          0          0
  strong branching :       0.04          -          -          0          0
  actconsdiving    :       0.00       0.00          0          0          0
  alns             :      28.59       0.00          3          0          0
  bound            :       0.00       0.00          0          0          0
  clique           :       0.08       0.00          1          0          0
  coefdiving       :      37.98       0.00          9          0          0
  completesol      :       0.00       0.00          0          0          0
  conflictdiving   :       0.00       0.00          0          0          0
  crossover        :       0.00       0.00          0          0          0
  dins             :       0.00       0.00          0          0          0
  distributiondivin:     152.45       0.00          9          0          0
  dualval          :       0.00       0.00          0          0          0
  farkasdiving     :      31.84       0.00          1          0          0
  feaspump         :      99.42       0.00          4          0          0
  fixandinfer      :       0.00       0.00          0          0          0
  fracdiving       :      45.26       0.00          9          0          0
  gins             :       0.00       0.00          0          0          0
  guideddiving     :       0.00       0.00          0          0          0
  indicator        :       0.00       0.00          0          0          0
  intdiving        :       0.00       0.00          0          0          0
  intshifting      :       0.00       0.00          0          0          0
  linesearchdiving :      30.99       0.00          8          0          0
  localbranching   :       0.00       0.00          0          0          0
  locks            :       0.07       0.00          1          0          0
  lpface           :       0.04       0.00          0          0          0
  mpec             :       0.00       0.00          0          0          0
  multistart       :       0.00       0.00          0          0          0
  mutation         :       0.00       0.00          0          0          0
  nlpdiving        :       0.00       0.00          0          0          0
  objpscostdiving  :      31.81       0.00          5          0          0
  octane           :       0.00       0.00          0          0          0
  ofins            :       0.00       0.00          0          0          0
  oneopt           :       0.00       0.00          0          0          0
  proximity        :       0.00       0.00          0          0          0
  pscostdiving     :     144.44       0.00          9          0          0
  randrounding     :       0.06       0.00         67          0          0
  rens             :       0.28       0.00          1          0          0
  reoptsols        :       0.00       0.00          0          0          0
  repair           :       0.00       0.00          0          0          0
  rins             :       0.00       0.00          0          0          0
  rootsoldiving    :      89.19       0.00          5          0          0
  rounding         :       1.32       0.00        455          0          0
  shiftandpropagate:       0.11       0.00          1          0          0
  shifting         :       1.78       0.00        126          0          0
  simplerounding   :       0.01       0.00       1272          0          0
  subnlp           :       0.00       0.00          0          0          0
  trivial          :       0.01       0.00          2          0          0
  trivialnegation  :       0.00       0.00          0          0          0
  trysol           :       0.00       0.00          0          0          0
  twoopt           :       0.00       0.00          0          0          0
  undercover       :       0.00       0.00          0          0          0
  vbounds          :       0.32       0.00          1          0          0
  veclendiving     :      68.98       0.00          9          0          0
  zeroobj          :       0.00       0.00          0          0          0
  zirounding       :       0.38       0.00       1000          0          0
  other solutions  :          -          -          -          0          -
Diving Statistics  :      Calls      Nodes   LP Iters Backtracks  Conflicts   MinDepth   MaxDepth   AvgDepth  RoundSols  NLeafSols  MinSolDpt  MaxSolDpt  AvgSolDpt
  actconsdiving    :          0          -          -          -          -          -          -          -          -          -          -          -          -
  coefdiving       :          9       8429      73132          0          4        681       1419      965.4          0          -          -          -          -
  conflictdiving   :          0          -          -          -          -          -          -          -          -          -          -          -          -
  distributiondivin:          9       3575     279690          1         14        330        502      426.0          0          -          -          -          -
  farkasdiving     :          1         16      53151          0          0         17         17       17.0          0          -          -          -          -
  fracdiving       :          9       7850      87608          1          6        267       1310      900.4          0          -          -          -          -
  guideddiving     :          0          -          -          -          -          -          -          -          -          -          -          -          -
  linesearchdiving :          8       6605      59837          1          6        308       1144      855.4          0          -          -          -          -
  pscostdiving     :          9       4051     241855          0          0        355        573      477.8          0          -          -          -          -
  veclendiving     :          9       4330     141877          0          0        493        538      511.2          0          -          -          -          -
Neighborhoods      :      Calls  SetupTime  SolveTime SolveNodes       Sols       Best       Exp3  EpsGreedy        UCB TgtFixRate  Opt  Inf Node Stal  Sol  Usr Othr Actv
  rens             :          3       0.21      28.32        140          0          0    0.00000   -1.00000    0.42141      0.900    0    1    0    2    0    0    0    1
  rins             :          0       0.00       0.00          0          0          0    0.00000   -1.00000    0.06194      0.900    0    0    0    0    0    0    0    1
  mutation         :          0       0.00       0.00          0          0          0    0.00000   -1.00000    0.06194      0.900    0    0    0    0    0    0    0    1
  localbranching   :          0       0.00       0.00          0          0          0    0.00000   -1.00000    0.06194      0.900    0    0    0    0    0    0    0    1
  crossover        :          0       0.00       0.00          0          0          0    0.00000   -1.00000    0.06194      0.900    0    0    0    0    0    0    0    1
  proximity        :          0       0.00       0.00          0          0          0    0.00000   -1.00000    0.06194      0.900    0    0    0    0    0    0    0    1
  zeroobjective    :          0       0.00       0.00          0          0          0    0.00000   -1.00000    0.06194      0.900    0    0    0    0    0    0    0    1
  dins             :          0       0.00       0.00          0          0          0    0.00000   -1.00000    0.06194      0.900    0    0    0    0    0    0    0    1
LP                 :       Time      Calls Iterations  Iter/call   Iter/sec  Time-0-It Calls-0-It    ItLimit
  primal LP        :       3.71          4          0       0.00       0.00       3.71          4
  dual LP          :    4165.97       1273    6937506    5454.01    1665.28       0.00          1
  lex dual LP      :       0.00          0          0       0.00          -
  barrier LP       :       0.00          0          0       0.00          -       0.00          0
  resolve instable :       0.00          0          0       0.00          -
  diving/probing LP:     724.19        240    1364118    5683.82    1883.65
  strong branching :    2223.67       3673    3606391     981.87    1621.82          -          -       6955
    (at root node) :          -         20      15353     767.65          -
  conflict analysis:       0.00          0          0       0.00          -
B&B Tree           :
  number of runs   :          1
  nodes            :       1252 (1252 internal, 0 leaves)
  feasible leaves  :          0
  infeas. leaves   :          0
  objective leaves :          0
  nodes (total)    :       1252 (1252 internal, 0 leaves)
  nodes left       :       1253
  max depth        :         41
  max depth (total):         41
  backtracks       :         66 (5.3%)
  early backtracks :          0 (0.0%)
  nodes exc. ref.  :          0 (0.0%)
  delayed cutoffs  :          0
  repropagations   :          0 (0 domain reductions, 0 cutoffs)
  avg switch length:       2.34
  switching time   :       3.79
Root Node          :
  First LP value   : +1.79999999999995e+03
  First LP Iters   :      11729 (2924.94 Iter/sec)
  First LP Time    :       4.01
  Final Dual Bound : +1.80000000000009e+03
  Final Root Iters :      51362
  Root LP Estimate : +1.81681289817231e+03
Solution           :
  Solutions found  :          0 (0 improvements)
  Primal Bound     :          -
  Dual Bound       : +1.80000000000009e+03
  Gap              :   infinite
  Avg. Gap         :     100.00 % (720000.00 primal-dual integral)
  Tree Data        : 2505 nodes (1252 visited, 1252 inner, 0 leaves, 1253 open), progress: 0.0000
Tree Estimation    :       estim       value       trend  resolution      smooth
  wbe              :          -1           -           -           -           -
  tree profile     :       17485           -           -           -           -
  gap              :          -1     0.00000 999999999999999967336168804116691273849533185806555472917961779471295845921727862608739868455469056.00000           1 999999999999999967336168804116691273849533185806555472917961779471295845921727862608739868455469056
  progress         :          -1     0.00000 999999999999999967336168804116691273849533185806555472917961779471295845921727862608739868455469056.00000           1 999999999999999967336168804116691273849533185806555472917961779471295845921727862608739868455469056
  leaf-frequency   :          -1    -0.50000 999999999999999967336168804116691273849533185806555472917961779471295845921727862608739868455469056.00000           1 999999999999999967336168804116691273849533185806555472917961779471295845921727862608739868455469056
  ssg              :          -1     1.00000 999999999999999967336168804116691273849533185806555472917961779471295845921727862608739868455469056.00000           1 999999999999999967336168804116691273849533185806555472917961779471295845921727862608739868455469056
  open-nodes       :          -1     0.00000 999999999999999967336168804116691273849533185806555472917961779471295845921727862608739868455469056.00000           1 999999999999999967336168804116691273849533185806555472917961779471295845921727862608739868455469056

@04 1566511594
-----------------------------
Fr 23. Aug 00:06:34 CEST 2019
-----------------------------

=ready=
